100 76097

 422 446
840 378
618 390
472 657
893 51
547 242
631 294
526 920
503 563
14 266
778 120
652 712
806 917
364 248
119 70
238 853
546 57
169 382
522 39
634 984
913 801
657 443
963 18
958 952
735 732
883 825
769 756
780 352
871 972
516 816
938 298
397 283
866 586
106 110
85 180
214 938
121 544
132 746
850 794
197 25
19 843
642 791
12 738
81 57
330 180
866 232
774 894
392 343
637 477
307 799
267 576
447 455
441 232
895 289
652 213
841 258
2 530
520 687
762 929
651 229
636 226
309 596
740 803
522 435
469 882
212 758
112 402
8 622
804 766
477 88
874 584
460 893
253 542
526 684
752 309
438 906
754 343
981 436
854 177
661 139
236 194
306 186
478 218
679 164
20 161
216 943
855 525
135 808
905 601
129 836
410 42
422 915
294 210
246 741
701 862
556 275
86 954
556 279
842 251
375 310
